c Random 3-CNF over 40 variables and 40 clauses
c Generated with `cnfgen`
c (C) 2012-2016 Massimo Lauria <lauria.massimo@gmail.com>
c https://massimolauria.github.io/cnfgen
c
c COMMAND LINE: cnfgen --output tmp-3-40-40.dimacs --output-format dimacs randkcnf 3 40 40
c
c sdimacs generated by gen-sdimacs
c
p cnf 40 40
r 0.5 1 2 3 4 5 6 7 8 9 10 11 12 13 14 15 16 17 18 19 20 0
e  21 22 23 24 25 26 27 28 29 30 31 32 33 34 35 36 37 38 39 40 0
-9 30 36 0
8 -34 40 0
8 19 32 0
-6 16 34 0
20 32 35 0
19 -30 -32 0
-1 -16 -40 0
-9 11 -12 0
6 -18 20 0
-16 -27 28 0
-4 -14 -20 0
30 -31 -33 0
-18 27 -37 0
4 -5 34 0
21 -23 31 0
-31 -33 40 0
13 -33 38 0
24 -30 38 0
4 -8 33 0
10 16 30 0
10 27 -37 0
14 18 -31 0
6 31 37 0
-18 28 31 0
26 -33 -36 0
8 -32 -34 0
1 19 28 0
-12 -26 38 0
-8 -13 -25 0
8 14 -25 0
-11 -15 -35 0
31 -36 -37 0
-18 -26 -32 0
-8 -29 -35 0
1 29 38 0
4 31 -40 0
-3 -12 -25 0
-2 -33 37 0
4 18 37 0
-1 5 37 0
